NAME : LR1_6_5
TYPE : PDPTW
DIMENSION : 150
EDGE_WEIGHT_TYPE : EXACT_2D
NODE_COORD_SECTION
1 1 0
2 150 0
3 0 0
4 10 221
5 307 2
6 77 107
7 3 174
8 1053 0
9 166 123
10 10 0
11 293 14
12 0 76
13 24 614
14 123 7
15 670 700
16 8 247
17 848 10
18 152 29
19 10 0
20 216 25
21 0 19
22 -16 1011
23 0 12
24 592 622
25 13 148
26 37 10
27 291 148
28 10 0
29 241 -31
30 82 0
31 -12 750
32 0 17
33 807 837
34 18 266
35 363 10
36 99 226
37 10 10
38 116 22
39 0 102
40 15 363
41 112 22
42 1086 1116
43 23 17
44 607 10
45 96 86
46 10 0
47 228 2
48 0 518
49 -12 205
50 0 27
51 202 232
52 28 16
53 283 10
54 67 175
55 10 151
56 286 17
57 0 304
58 33 88
59 421 32
60 654 684
61 33 26
62 900 10
63 37 14
64 10 0
65 11 34
66 0 548
67 -19 804
68 0 37
69 162 192
70 38 154
71 79 10
72 75 191
73 10 0
74 62 16
75 0 522
76 17 446
77 566 42
78 347 377
79 43 99
80 280 10
81 6 168
82 0 0
83 211 -35
84 86 0
85 -29 1045
86 0 47
87 693 723
88 48 268
89 873 10
90 29 8
91 10 0
92 89 -8
93 516 0
94 -19 388
95 0 52
96 491 521
97 53 282
98 886 10
99 90 44
100 10 314
101 7 25
102 0 334
103 14 828
104 625 57
105 188 218
106 58 207
107 215 10
108 289 143
109 10 0
110 194 -25
111 261 0
112 29 770
113 613 62
114 551 581
115 63 207
116 518 10
117 136 50
118 10 0
119 221 -36
120 425 0
121 -45 823
122 0 67
123 459 489
124 68 206
125 776 10
126 227 5
127 10 573
128 287 -18
129 397 0
130 23 17
131 336 72
132 726 756
133 73 152
134 103 10
135 225 192
136 10 389
137 104 21
138 0 166
139 -14 789
140 0 77
141 265 295
142 78 106
143 242 10
144 73 81
145 10 201
146 232 -18
147 227 0
148 42 553
149 626 82
150 484 514
PICKUP_AND_DELIVERY_SECTION
1 0 0 0 0 0 0
2 0 0 0 0 1206 0
3 0 0 0 0 0 71
4 0 0 0 0 10 10
5 0 0 0 0 80 80
6 0 0 0 0 0 0
7 0 0 0 0 21 21
8 0 0 0 0 618 0
9 0 0 0 0 31 31
10 0 0 0 0 5 5
11 0 0 0 0 568 568
12 0 0 0 0 140 140
13 0 0 0 0 10 10
14 0 0 0 0 203 203
15 0 0 0 0 0 0
16 0 0 0 0 -21 -21
17 0 0 0 0 0 0
18 0 0 0 0 899 899
19 0 0 0 0 10 10
20 0 0 0 0 238 238
21 0 0 0 0 107 107
22 0 0 0 0 10 10
23 0 0 0 0 270 270
24 0 0 0 0 0 0
25 0 0 0 0 24 24
26 0 0 0 0 463 0
27 0 0 0 0 636 636
28 0 0 0 0 15 15
29 0 0 0 0 797 797
30 0 0 0 0 162 162
31 0 0 0 0 10 10
32 0 0 0 0 254 254
33 0 0 0 0 0 0
34 0 0 0 0 11 11
35 0 0 0 0 591 0
36 0 0 0 0 328 328
37 0 0 0 0 20 0
38 0 0 0 0 260 260
39 0 0 0 0 110 110
40 0 0 0 0 10 10
41 0 0 0 0 107 107
42 0 0 0 0 221 221
43 0 0 0 0 -5 0
44 0 0 0 0 0 0
45 0 0 0 0 83 83
46 0 0 0 0 25 25
47 0 0 0 0 387 387
48 0 0 0 0 100 100
49 0 0 0 0 10 10
50 0 0 0 0 277 277
51 0 0 0 0 0 0
52 0 0 0 0 -2 -2
53 0 0 0 0 0 0
54 0 0 0 0 276 276
55 0 0 0 0 30 0
56 0 0 0 0 432 432
57 0 0 0 0 176 176
58 0 0 0 0 10 10
59 0 0 0 0 14 14
60 0 0 0 0 443 443
61 0 0 0 0 -24 -24
62 0 0 0 0 0 0
63 0 0 0 0 243 243
64 0 0 0 0 35 35
65 0 0 0 0 510 510
66 0 0 0 0 74 74
67 0 0 0 0 10 10
68 0 0 0 0 53 53
69 0 0 0 0 0 0
70 0 0 0 0 21 21
71 0 0 0 0 140 0
72 0 0 0 0 85 85
73 0 0 0 0 40 40
74 0 0 0 0 835 835
75 0 0 0 0 209 209
76 0 0 0 0 10 10
77 0 0 0 0 149 149
78 0 0 0 0 563 563
79 0 0 0 0 4 4
80 0 0 0 0 417 0
81 0 0 0 0 744 744
82 0 0 0 0 45 45
83 0 0 0 0 226 226
84 0 0 0 0 254 254
85 0 0 0 0 10 10
86 0 0 0 0 175 175
87 0 0 0 0 0 0
88 0 0 0 0 -22 -22
89 0 0 0 0 0 0
90 0 0 0 0 751 751
91 0 0 0 0 50 50
92 0 0 0 0 856 856
93 0 0 0 0 9 9
94 0 0 0 0 10 10
95 0 0 0 0 294 294
96 0 0 0 0 535 535
97 0 0 0 0 -21 -21
98 0 0 0 0 0 0
99 0 0 0 0 992 992
100 0 0 0 0 55 0
101 0 0 0 0 442 442
102 0 0 0 0 176 176
103 0 0 0 0 0 0
104 0 0 0 0 243 243
105 0 0 0 0 0 0
106 0 0 0 0 13 13
107 0 0 0 0 533 0
108 0 0 0 0 139 139
109 0 0 0 0 60 60
110 0 0 0 0 128 128
111 0 0 0 0 295 295
112 0 0 0 0 0 0
113 0 0 0 0 62 62
114 0 0 0 0 377 377
115 0 0 0 0 11 11
116 0 0 0 0 288 0
117 0 0 0 0 247 247
118 0 0 0 0 65 65
119 0 0 0 0 326 326
120 0 0 0 0 208 208
121 0 0 0 0 10 10
122 0 0 0 0 29 29
123 0 0 0 0 542 542
124 0 0 0 0 10 10
125 0 0 0 0 271 0
126 0 0 0 0 370 370
127 0 0 0 0 70 0
128 0 0 0 0 1013 1013
129 0 0 0 0 151 151
130 0 0 0 0 10 10
131 0 0 0 0 100 100
132 0 0 0 0 411 411
133 0 0 0 0 10 10
134 0 0 0 0 250 0
135 0 0 0 0 546 546
136 0 0 0 0 75 0
137 0 0 0 0 99 99
138 0 0 0 0 296 296
139 0 0 0 0 10 10
140 0 0 0 0 170 170
141 0 0 0 0 0 0
142 0 0 0 0 -21 -21
143 0 0 0 0 0 0
144 0 0 0 0 556 556
145 0 0 0 0 80 0
146 0 0 0 0 963 963
147 0 0 0 0 112 112
148 0 0 0 0 0 0
149 0 0 0 0 251 251
150 0 0 0 0 0 0
DEPOT_SECTION
1 
-1
EOF
